     Program PWSCF v.5.1rc2 starts on 20Sep2017 at 13:24:49

     Current dimensions of program PWSCF are:
     Max number of different atomic species (ntypx) = 10
     Max number of k-points (npk) =  40000
     Max angular momentum in pseudopotentials (lmaxx) =  3

     IMPORTANT: XC functional enforced from input :
     Exchange-correlation      = PBE ( 1  4  3  4 0)
     Any further DFT definition will be discarded
     Please, verify this is what you really want

     Subspace diagonalization in iterative solution of the eigenvalue problem:
     a serial algorithm will be used

     Found symmetry operation: I + (  0.0000 -0.5000  0.0000)
     This is a supercell, fractional translations are disabled

     bravais-lattice index     =            0
     lattice parameter (alat)  =       1.8897  a.u.
     unit-cell volume          =    2613.7026 (a.u.)^3
     number of atoms/cell      =           12
     number of atomic types    =            1
     number of electrons       =       192.00
     number of Kohn-Sham states=          106
     kinetic-energy cutoff     =      33.0744  Ry
     charge density cutoff     =     330.7439  Ry
     convergence threshold     =      7.3E-08
     mixing beta               =       0.0500
     number of iterations used =            8  local-TF  mixing
     Exchange-correlation      = PBE ( 1  4  3  4 0)
     nstep                     =           50

     celldm(1)=   1.889726  celldm(2)=   0.000000  celldm(3)=   0.000000
     celldm(4)=   0.000000  celldm(5)=   0.000000  celldm(6)=   0.000000

     crystal axes: (cart. coord. in units of alat)
               a(1) = (   5.547960   0.000000   0.000000 )
               a(2) = (  -2.773980   4.804674   0.000000 )
               a(3) = (   0.000000   0.000000  14.529890 )

     reciprocal axes: (cart. coord. in units 2 pi/alat)
               b(1) = (  0.180246  0.104065  0.000000 )
               b(2) = (  0.000000  0.208131  0.000000 )
               b(3) = (  0.000000  0.000000  0.068824 )

     PseudoPot. # 1 for Pt read from file:
     /gpfs/pace1/project/chbe-medford/medford-share/data/pseudos/SSSP_eff_PBE/Pt.UPF
     MD5 check sum: f09d6de1a584b5a045c4fc126da2d0c4
     Pseudo is Ultrasoft + core correction, Zval = 16.0
     Generated by new atomic code, or converted to UPF format
     Using radial grid of  985 points,  6 beta functions with:
                l(1) =   0
                l(2) =   0
                l(3) =   1
                l(4) =   1
                l(5) =   2
                l(6) =   2
     Q(r) pseudized with  8 coefficients,  rinner =    1.300   1.300   1.300
                                                       1.300   1.300

     atomic species   valence    mass     pseudopotential
        Pt1           16.00   195.08000     Pt( 1.00)

      6 Sym. Ops. (no inversion) found

   Cartesian axes

     site n.     atom                  positions (alat units)
         1           Pt1 tau(   1) = (   0.0000000   0.0000000   5.0000000  )
         2           Pt1 tau(   2) = (  -1.3869900   2.4023371   5.0000000  )
         3           Pt1 tau(   3) = (   1.3869900   2.4023371   5.0000000  )
         4           Pt1 tau(   4) = (   2.7739799   0.0000000   5.0000000  )
         5           Pt1 tau(   5) = (   2.7739799   1.6015580   7.2649451  )
         6           Pt1 tau(   6) = (   1.3869900   4.0038951   7.2649451  )
         7           Pt1 tau(   7) = (  -1.3869900   4.0038951   7.2649451  )
         8           Pt1 tau(   8) = (   0.0000000   1.6015580   7.2649451  )
         9           Pt1 tau(   9) = (   0.0000000   3.2031161   9.5298902  )
        10           Pt1 tau(  10) = (   1.3869900   0.8007790   9.5298902  )
        11           Pt1 tau(  11) = (   4.1609699   0.8007790   9.5298902  )
        12           Pt1 tau(  12) = (   2.7739799   3.2031161   9.5298902  )

     number of k points=    18  Fermi-Dirac smearing, width (Ry)=  0.0073
                       cart. coord. in units 2pi/alat
        k(    1) = (   0.0000000   0.0000000   0.0000000), wk =   0.0571429
        k(    2) = (   0.0000000   0.0297330   0.0000000), wk =   0.1142857
        k(    3) = (   0.0000000   0.0594659   0.0000000), wk =   0.1142857
        k(    4) = (   0.0000000   0.0891989   0.0000000), wk =   0.1142857
        k(    5) = (   0.0360493   0.0208131   0.0000000), wk =   0.1142857
        k(    6) = (   0.0360493   0.0505460   0.0000000), wk =   0.1142857
        k(    7) = (   0.0360493   0.0802790   0.0000000), wk =   0.1142857
        k(    8) = (   0.0360493   0.1100119   0.0000000), wk =   0.1142857
        k(    9) = (   0.0360493  -0.0683858   0.0000000), wk =   0.1142857
        k(   10) = (   0.0360493  -0.0386528   0.0000000), wk =   0.1142857
        k(   11) = (   0.0360493  -0.0089199   0.0000000), wk =   0.1142857
        k(   12) = (   0.0720986   0.0416261   0.0000000), wk =   0.1142857
        k(   13) = (   0.0720986   0.0713591   0.0000000), wk =   0.1142857
        k(   14) = (   0.0720986   0.1010920   0.0000000), wk =   0.1142857
        k(   15) = (   0.0720986   0.1308250   0.0000000), wk =   0.1142857
        k(   16) = (   0.0720986  -0.0475727   0.0000000), wk =   0.1142857
        k(   17) = (   0.0720986  -0.0178398   0.0000000), wk =   0.1142857
        k(   18) = (   0.0720986   0.0118932   0.0000000), wk =   0.1142857

     Largest allocated arrays     est. size (Mb)     dimensions
     Largest temporary arrays     est. size (Mb)     dimensions

     Initial potential from superposition of free atoms
     Check: negative starting charge=   -2.207876

     starting charge  185.99986, renormalised to  192.00000

     negative rho (up, down):  2.279E+00 0.000E+00
     Starting wfc are  144 randomized atomic wfcs

     Self-consistent Calculation

     iteration #  1     ecut=    33.07 Ry     beta=0.05
     CG style diagonalization
     ethr =  1.00E-02,  avg # of iterations =  2.4

     negative rho (up, down):  2.268E+00 0.000E+00

     total energy              =   -2531.55356969 Ry
     Harris-Foulkes estimate   =   -2531.96140159 Ry
     estimated scf accuracy    <      16.88131032 Ry

[...]

     iteration # 14     ecut=    33.07 Ry     beta=0.05
     CG style diagonalization
     c_bands:  1 eigenvalues not converged
     ethr =  1.20E-05,  avg # of iterations =  3.3

[...]

     End of self-consistent calculation

          k = 0.0000 0.0000 0.0000 (  8427 PWs)   bands (ev):

   -45.5058 -45.5058 -45.5058 -45.3710 -45.3351 -45.3351 -45.3351 -45.2314
   -45.2314 -45.2314 -45.1663 -45.1663 -45.1662 -45.1400 -45.1400 -45.1176
   -45.1176 -45.1176 -44.8994 -44.8994 -44.8994 -44.8949 -44.8949 -44.8949
   -44.8110 -44.8110 -44.8091 -44.8091 -44.6988 -44.6558 -44.6532 -44.6531
   -44.6531 -44.6384 -44.6383 -44.6383  -1.8057  -0.0142   0.4500   0.8379
     0.8379   0.8379   1.0800   1.0800   1.0800   1.5650   1.5650   1.5650
     1.7147   1.7147   1.7147   3.2029   3.2029   3.2030   3.6156   3.6156
     3.6156   3.7784   3.8793   3.8793   4.2034   4.2034   4.2096   4.3683
     4.3683   4.3683   4.4364   4.4364   4.9887   4.9888   4.9888   5.9830
     5.9830   5.9830   5.9968   5.9968   6.1092   6.1092   6.1092   6.6423
     6.6729   6.6729   7.2565   7.2565   7.2565   7.2871   7.2872   7.2872
     7.4073   7.4073   7.6382   7.6382   7.6382   7.9647   7.9647   7.9648
     8.0270   8.0270   8.0270   8.2146   8.5598   8.5598   8.5598  10.3245
    10.3246  10.3246

[...]

     the Fermi energy is     7.4277 ev

!    total energy              =   -2527.98153237 Ry
     Harris-Foulkes estimate   =   -2527.98149147 Ry
     estimated scf accuracy    <       0.00000004 Ry

     The total energy is the sum of the following terms:

     one-electron contribution =   -6966.25879163 Ry
     hartree contribution      =    3553.65895726 Ry
     xc contribution           =    -682.27732870 Ry
     ewald contribution        =    1566.95308287 Ry
     smearing contrib. (-TS)   =      -0.05745218 Ry

     convergence has been achieved in  36 iterations

     Forces acting on atoms (Ry/au):

     negative rho (up, down):  2.101E+00 0.000E+00
     atom    1 type  1   force =     0.00000000   -0.00000000   -0.01804249
     atom    2 type  1   force =    -0.00000002   -0.00000001   -0.01804095
     atom    3 type  1   force =     0.00000002   -0.00000001   -0.01804095
     atom    4 type  1   force =    -0.00000000    0.00000002   -0.01804095
     atom    5 type  1   force =     0.00000000    0.00000000   -0.00000167
     atom    6 type  1   force =     0.00000018    0.00000010   -0.00000213
     atom    7 type  1   force =    -0.00000018    0.00000010   -0.00000213
     atom    8 type  1   force =    -0.00000000   -0.00000020   -0.00000213
     atom    9 type  1   force =     0.00000000    0.00000000    0.01804493
     atom   10 type  1   force =    -0.00000006   -0.00000003    0.01804282
     atom   11 type  1   force =     0.00000006   -0.00000003    0.01804282
     atom   12 type  1   force =     0.00000000    0.00000007    0.01804282

     Total force =     0.051031     Total SCF correction =     0.000423
 !ASE

     Writing output data file calc.save
     Check: negative starting charge=   -2.207876
     NEW-OLD atomic charge density approx. for the potential
     Check: negative starting charge=   -2.195728

[...]

     Total force =     0.017474     Total SCF correction =     0.000275
 !ASE

     Writing output data file calc.save
     Check: negative starting charge=   -2.195728
     NEW-OLD atomic charge density approx. for the potential
     Check: negative starting charge=   -2.203618

[...]

     Self-consistent Calculation

     iteration #  1     ecut=    33.07 Ry     beta=0.05
     CG style diagonalization
     c_bands:  1 eigenvalues not converged
     c_bands:  5 eigenvalues not converged
     c_bands:  2 eigenvalues not converged
     c_bands:  3 eigenvalues not converged
     ethr =  8.98E-11,  avg # of iterations = 27.3

[...]

     total energy              =   -2527.99119612 Ry
     Harris-Foulkes estimate   =   -2527.99119366 Ry
     estimated scf accuracy    <       0.00000021 Ry

     iteration # 15     ecut=    33.07 Ry     beta=0.05
     CG style diagonalization
     ethr =  1.07E-10,  avg # of iterations =  3.1

     negative rho (up, down):  2.099E+00 0.000E+00

     End of self-consistent calculation

[...]

          k = 0.0721 0.0119 0.0000 (  8399 PWs)   bands (ev):

   -45.4174 -45.3935 -45.3735 -45.2670 -45.2391 -45.2225 -45.2210 -45.2176
   -45.2047 -45.1989 -45.1774 -45.1266 -45.1065 -45.0835 -45.0718 -45.0637
   -45.0542 -45.0397 -44.9567 -44.9523 -44.8965 -44.8953 -44.8916 -44.8877
   -44.8708 -44.8690 -44.8214 -44.8204 -44.6295 -44.6080 -44.6057 -44.6009
   -44.5976 -44.5952 -44.5937 -44.5894  -0.5737   1.0200   1.0489   1.4051
     1.5036   1.6440   1.8083   1.9603   1.9858   2.0288   2.1397   2.3061
     2.3942   2.5243   2.8159   3.2482   3.2892   3.3209   3.4030   3.5032
     3.6918   3.8376   3.8498   3.8591   4.0019   4.1422   4.1584   4.2778
     4.3193   4.5674   4.6529   4.6956   4.7817   4.8588   5.0722   5.1385
     5.1587   5.1832   5.2049   5.2951   5.3597   5.4538   5.5103   5.6281
     5.8579   5.9208   6.0191   6.0483   6.0995   6.2661   6.3621   6.6811
     6.6987   6.8550   6.8707   7.0488   7.0861   7.1892   7.2253   7.2394
     7.4403   7.4639   7.4985   7.6023   8.3136   8.3646   8.7334   9.9928
    10.7307  10.8007

     the Fermi energy is     7.3703 ev

!    total energy              =   -2527.99122202 Ry
     Harris-Foulkes estimate   =   -2527.99119615 Ry
     estimated scf accuracy    <       0.00000005 Ry

     The total energy is the sum of the following terms:

     one-electron contribution =   -6666.61057296 Ry
     hartree contribution      =    3404.09820287 Ry
     xc contribution           =    -682.01374073 Ry
     ewald contribution        =    1416.59089462 Ry
     smearing contrib. (-TS)   =      -0.05600582 Ry

     convergence has been achieved in  15 iterations

     Forces acting on atoms (Ry/au):

     negative rho (up, down):  2.099E+00 0.000E+00
     atom    1 type  1   force =     0.00000000    0.00000000   -0.00077998
     atom    2 type  1   force =    -0.00000081   -0.00000047   -0.00077884
     atom    3 type  1   force =     0.00000081   -0.00000047   -0.00077884
     atom    4 type  1   force =     0.00000000    0.00000094   -0.00077884
     atom    5 type  1   force =     0.00000000    0.00000000    0.00001227
     atom    6 type  1   force =     0.00000083    0.00000048    0.00001230
     atom    7 type  1   force =    -0.00000083    0.00000048    0.00001230
     atom    8 type  1   force =     0.00000000   -0.00000095    0.00001230
     atom    9 type  1   force =     0.00000000   -0.00000000    0.00076846
     atom   10 type  1   force =     0.00000080    0.00000046    0.00076628
     atom   11 type  1   force =    -0.00000080    0.00000046    0.00076628
     atom   12 type  1   force =     0.00000000   -0.00000092    0.00076628

     Total force =     0.002187     Total SCF correction =     0.000781
     SCF correction compared to forces is large: reduce conv_thr to get better values
 !ASE

     Writing output data file calc.save

     General routines

     Parallel routines

   This run was terminated on:  13:42:23  20Sep2017

   JOB DONE.